p edge 1080 2592
e 1 29
e 1 241
e 1 282
e 1 325
e 1 489
e 1 542
e 1 570
e 1 607
e 1 656
e 1 735
e 1 1045
e 1 1078
e 2 504
e 2 525
e 2 1017
e 3 557
e 3 983
e 3 992
e 4 376
e 4 734
e 4 945
e 5 130
e 5 548
e 5 924
e 6 316
e 6 791
e 6 825
e 7 11
e 7 60
e 7 86
e 7 168
e 7 327
e 7 723
e 7 780
e 7 984
e 7 986
e 7 997
e 7 1013
e 7 1021
e 8 170
e 8 320
e 8 512
e 9 78
e 9 117
e 9 146
e 9 218
e 9 396
e 9 748
e 9 777
e 9 814
e 9 821
e 9 920
e 9 1005
e 9 1050
e 10 625
e 10 683
e 10 827
e 11 504
e 11 1017
e 12 393
e 12 553
e 12 1068
e 13 14
e 13 67
e 13 1015
e 14 81
e 14 85
e 14 148
e 14 236
e 14 338
e 14 374
e 14 537
e 14 936
e 14 964
e 14 993
e 14 1042
e 15 385
e 15 942
e 15 1030
e 16 35
e 16 392
e 16 683
e 17 359
e 17 371
e 17 1072
e 18 760
e 18 902
e 18 1003
e 19 134
e 19 979
e 19 1003
e 20 197
e 20 330
e 20 734
e 21 170
e 21 884
e 21 979
e 22 110
e 22 139
e 22 286
e 22 360
e 22 427
e 22 546
e 22 555
e 22 671
e 22 681
e 22 841
e 22 973
e 22 1025
e 23 183
e 23 216
e 23 482
e 23 720
e 23 721
e 23 744
e 23 788
e 23 842
e 23 853
e 23 980
e 23 1052
e 23 1079
e 24 174
e 24 398
e 24 760
e 25 41
e 25 194
e 25 347
e 25 415
e 25 429
e 25 570
e 25 575
e 25 601
e 25 672
e 25 743
e 25 1063
e 25 1076
e 26 88
e 26 228
e 26 471
e 27 204
e 27 440
e 27 648
e 28 83
e 28 208
e 28 351
e 28 412
e 28 432
e 28 581
e 28 627
e 28 660
e 28 820
e 28 856
e 28 915
e 28 1067
e 29 235
e 29 440
e 30 359
e 30 928
e 30 999
e 31 132
e 31 275
e 31 368
e 31 379
e 31 531
e 31 569
e 31 654
e 31 693
e 31 695
e 31 764
e 31 944
e 31 1014
e 32 134
e 32 465
e 32 566
e 33 586
e 33 664
e 33 797
e 34 93
e 34 719
e 34 1068
e 35 187
e 35 276
e 35 363
e 35 577
e 35 637
e 35 873
e 35 892
e 35 986
e 35 1008
e 35 1035
e 35 1046
e 36 67
e 36 675
e 36 1068
e 37 129
e 37 701
e 37 850
e 38 131
e 38 264
e 38 701
e 39 314
e 39 336
e 39 1068
e 40 129
e 40 504
e 40 573
e 41 172
e 41 884
e 42 160
e 42 245
e 42 701
e 43 108
e 43 385
e 43 651
e 44 201
e 44 402
e 44 409
e 44 459
e 44 769
e 44 894
e 44 936
e 44 988
e 44 994
e 44 997
e 44 1048
e 44 1070
e 45 623
e 45 1036
e 45 1053
e 46 260
e 46 715
e 46 858
e 47 337
e 47 979
e 47 1034
e 48 513
e 48 960
e 48 1068
e 49 80
e 49 610
e 49 648
e 50 108
e 50 136
e 50 715
e 51 330
e 51 385
e 51 675
e 52 136
e 52 513
e 52 591
e 53 359
e 53 471
e 53 683
e 54 246
e 54 553
e 54 642
e 55 72
e 55 130
e 55 616
e 56 134
e 56 440
e 56 791
e 57 762
e 57 830
e 57 851
e 58 683
e 58 734
e 58 999
e 59 310
e 59 435
e 59 580
e 60 435
e 60 683
e 61 462
e 61 702
e 61 757
e 62 295
e 62 462
e 62 623
e 63 105
e 63 166
e 63 275
e 63 301
e 63 343
e 63 441
e 63 443
e 63 446
e 63 499
e 63 794
e 63 919
e 63 932
e 64 127
e 64 149
e 64 185
e 64 209
e 64 276
e 64 387
e 64 408
e 64 779
e 64 832
e 64 844
e 64 995
e 64 1046
e 65 131
e 65 548
e 65 589
e 66 334
e 66 673
e 66 677
e 67 74
e 67 401
e 67 588
e 67 629
e 67 695
e 67 724
e 67 764
e 67 766
e 67 786
e 67 974
e 68 857
e 68 989
e 68 992
e 69 362
e 69 992
e 69 1066
e 70 180
e 70 471
e 70 858
e 71 330
e 71 664
e 71 886
e 72 300
e 72 468
e 72 550
e 72 759
e 72 783
e 72 799
e 72 826
e 72 838
e 72 839
e 72 953
e 72 1063
e 73 160
e 73 337
e 73 657
e 74 337
e 74 589
e 75 93
e 75 207
e 75 679
e 76 359
e 76 557
e 76 1034
e 77 131
e 77 573
e 77 1015
e 78 243
e 78 1003
e 79 362
e 79 734
e 79 1034
e 80 171
e 80 220
e 80 306
e 80 416
e 80 505
e 80 745
e 80 841
e 80 946
e 80 957
e 80 993
e 80 1049
e 81 330
e 81 979
e 82 772
e 82 1015
e 82 1017
e 83 361
e 83 652
e 84 376
e 84 525
e 84 989
e 85 589
e 85 1077
e 86 509
e 86 1015
e 87 353
e 87 393
e 87 1072
e 88 173
e 88 227
e 88 403
e 88 484
e 88 585
e 88 587
e 88 666
e 88 686
e 88 707
e 88 776
e 88 901
e 89 164
e 89 260
e 89 714
e 90 246
e 90 271
e 90 376
e 91 331
e 91 586
e 91 1047
e 92 95
e 92 159
e 92 651
e 93 110
e 93 249
e 93 272
e 93 311
e 93 403
e 93 444
e 93 581
e 93 818
e 93 845
e 93 859
e 94 595
e 94 895
e 94 926
e 95 117
e 95 118
e 95 142
e 95 190
e 95 354
e 95 366
e 95 639
e 95 869
e 95 881
e 95 977
e 95 1061
e 96 440
e 96 616
e 96 805
e 97 904
e 97 1039
e 97 1065
e 98 618
e 98 714
e 98 960
e 99 264
e 99 557
e 99 1054
e 100 228
e 100 787
e 100 916
e 101 659
e 101 760
e 101 983
e 102 331
e 102 336
e 102 692
e 103 320
e 103 439
e 103 857
e 104 258
e 104 334
e 104 1039
e 105 922
e 105 1065
e 106 175
e 106 246
e 106 580
e 107 120
e 107 128
e 107 302
e 107 327
e 107 416
e 107 780
e 107 817
e 107 847
e 107 848
e 107 871
e 107 1000
e 107 1042
e 108 116
e 108 179
e 108 250
e 108 518
e 108 631
e 108 887
e 108 917
e 108 931
e 108 959
e 108 1067
e 109 207
e 109 393
e 109 825
e 110 246
e 111 243
e 111 295
e 111 442
e 112 180
e 112 644
e 112 1047
e 113 179
e 113 351
e 113 386
e 113 436
e 113 507
e 113 568
e 113 583
e 113 632
e 113 770
e 113 918
e 113 962
e 113 972
e 114 392
e 114 504
e 114 509
e 115 361
e 115 644
e 115 1020
e 116 331
e 116 757
e 117 904
e 118 830
e 118 942
e 119 164
e 119 591
e 119 715
e 120 337
e 120 433
e 121 161
e 121 279
e 121 339
e 121 349
e 121 446
e 121 500
e 121 520
e 121 523
e 121 614
e 121 819
e 121 905
e 121 1043
e 122 525
e 122 797
e 122 834
e 123 157
e 123 206
e 123 250
e 123 315
e 123 324
e 123 366
e 123 453
e 123 635
e 123 639
e 123 667
e 123 691
e 123 756
e 124 158
e 124 321
e 124 463
e 124 481
e 124 514
e 124 551
e 124 560
e 124 689
e 124 753
e 124 917
e 124 1076
e 124 1078
e 125 215
e 125 439
e 125 584
e 126 204
e 126 685
e 126 886
e 127 271
e 127 625
e 128 992
e 128 1015
e 129 147
e 129 252
e 129 542
e 129 582
e 129 689
e 129 740
e 129 776
e 129 790
e 129 874
e 129 938
e 130 294
e 130 360
e 130 461
e 130 502
e 130 687
e 130 706
e 130 733
e 130 800
e 130 804
e 130 1045
e 131 158
e 131 274
e 131 282
e 131 332
e 131 377
e 131 472
e 131 634
e 131 883
e 131 901
e 132 316
e 132 1077
e 133 440
e 133 573
e 133 924
e 134 402
e 134 461
e 134 708
e 134 737
e 134 799
e 134 803
e 134 911
e 134 941
e 134 1031
e 135 359
e 135 413
e 135 591
e 136 199
e 136 247
e 136 248
e 136 491
e 136 535
e 136 632
e 136 646
e 136 845
e 136 885
e 136 1069
e 137 358
e 137 513
e 137 567
e 138 330
e 138 648
e 138 1057
e 139 214
e 139 393
e 140 331
e 140 623
e 140 630
e 141 651
e 141 692
e 141 916
e 142 810
e 142 897
e 143 359
e 143 376
e 143 529
e 144 271
e 144 393
e 144 857
e 145 246
e 145 825
e 145 1068
e 146 945
e 146 1066
e 147 211
e 147 462
e 148 314
e 148 1034
e 149 703
e 149 924
e 150 159
e 150 696
e 150 747
e 151 526
e 151 834
e 151 922
e 152 858
e 152 933
e 152 1020
e 153 258
e 153 399
e 153 696
e 154 450
e 154 571
e 154 757
e 155 257
e 155 652
e 155 933
e 156 677
e 156 989
e 156 1077
e 157 385
e 157 586
e 158 211
e 159 233
e 159 253
e 159 339
e 159 379
e 159 449
e 159 545
e 159 628
e 159 635
e 159 794
e 159 879
e 160 162
e 160 236
e 160 267
e 160 327
e 160 615
e 160 653
e 160 742
e 160 863
e 160 1019
e 160 1080
e 161 222
e 161 983
e 162 392
e 162 1017
e 163 398
e 163 525
e 163 557
e 164 202
e 164 318
e 164 454
e 164 502
e 164 519
e 164 738
e 164 811
e 164 962
e 164 1004
e 164 1062
e 165 186
e 165 504
e 165 548
e 166 178
e 166 399
e 167 222
e 167 385
e 167 787
e 168 625
e 168 928
e 169 591
e 169 791
e 169 1054
e 170 176
e 170 201
e 170 234
e 170 468
e 170 554
e 170 598
e 170 800
e 170 935
e 170 975
e 170 1001
e 171 420
e 171 465
e 172 205
e 172 263
e 172 270
e 172 377
e 172 593
e 172 790
e 172 843
e 172 870
e 172 969
e 172 1037
e 172 1056
e 173 999
e 173 1074
e 174 182
e 174 190
e 174 213
e 174 438
e 174 498
e 174 554
e 174 558
e 174 700
e 174 726
e 174 748
e 174 1031
e 175 203
e 175 455
e 175 532
e 175 547
e 175 597
e 175 626
e 175 721
e 175 749
e 175 796
e 175 981
e 175 1014
e 176 805
e 176 1057
e 177 344
e 177 573
e 177 1057
e 178 369
e 178 386
e 178 521
e 178 556
e 178 587
e 178 622
e 178 638
e 178 755
e 178 831
e 178 905
e 178 919
e 179 644
e 180 192
e 180 473
e 180 535
e 180 709
e 180 746
e 180 811
e 180 856
e 180 890
e 180 1004
e 180 1056
e 181 715
e 181 719
e 181 902
e 182 526
e 182 983
e 183 471
e 183 928
e 184 226
e 184 610
e 184 662
e 185 625
e 185 945
e 186 383
e 186 460
e 186 463
e 186 469
e 186 607
e 186 686
e 186 712
e 186 771
e 186 773
e 186 860
e 186 969
e 187 522
e 187 606
e 188 492
e 188 619
e 188 928
e 189 209
e 189 239
e 189 256
e 189 267
e 189 285
e 189 297
e 189 308
e 189 384
e 189 466
e 189 483
e 189 710
e 189 713
e 190 222
e 191 526
e 191 823
e 191 902
e 192 664
e 192 850
e 193 222
e 193 398
e 193 747
e 194 264
e 194 823
e 195 659
e 195 734
e 195 857
e 196 334
e 196 525
e 196 857
e 197 308
e 197 317
e 197 352
e 197 364
e 197 372
e 197 528
e 197 788
e 197 843
e 197 929
e 197 937
e 197 1028
e 198 215
e 198 371
e 198 1074
e 199 757
e 199 933
e 200 214
e 200 420
e 200 492
e 201 1003
e 202 886
e 202 1057
e 203 393
e 203 606
e 204 210
e 204 225
e 204 352
e 204 360
e 204 422
e 204 563
e 204 936
e 204 955
e 204 998
e 204 1052
e 205 362
e 205 512
e 206 692
e 206 762
e 207 401
e 207 405
e 207 418
e 207 722
e 207 754
e 207 829
e 207 835
e 207 988
e 207 1002
e 207 1075
e 208 214
e 208 260
e 209 235
e 210 385
e 210 903
e 211 298
e 211 383
e 211 412
e 211 519
e 211 646
e 211 709
e 211 742
e 211 837
e 211 855
e 211 899
e 212 358
e 212 362
e 212 450
e 213 834
e 213 942
e 214 247
e 214 287
e 214 501
e 214 666
e 214 784
e 214 828
e 214 835
e 214 930
e 214 939
e 215 252
e 215 426
e 215 444
e 215 472
e 215 486
e 215 658
e 215 682
e 215 771
e 215 784
e 215 831
e 216 260
e 216 1036
e 217 316
e 217 320
e 217 662
e 218 398
e 218 810
e 219 344
e 219 586
e 219 904
e 220 337
e 220 1017
e 221 616
e 221 810
e 221 945
e 222 291
e 222 400
e 222 552
e 222 564
e 222 729
e 222 846
e 222 889
e 222 909
e 223 522
e 223 623
e 223 1003
e 224 334
e 224 376
e 224 772
e 225 420
e 225 1057
e 226 251
e 226 277
e 226 301
e 226 397
e 226 495
e 226 663
e 226 786
e 226 809
e 226 838
e 226 944
e 226 1055
e 227 513
e 227 851
e 228 244
e 228 279
e 228 339
e 228 375
e 228 524
e 228 604
e 228 658
e 228 852
e 228 943
e 228 990
e 229 526
e 229 945
e 229 983
e 230 810
e 230 934
e 230 942
e 231 621
e 231 767
e 231 1020
e 232 320
e 232 433
e 232 648
e 233 797
e 233 834
e 234 566
e 234 610
e 235 536
e 235 565
e 235 617
e 235 758
e 235 804
e 235 846
e 235 861
e 235 866
e 235 931
e 235 987
e 236 893
e 237 621
e 237 1030
e 237 1074
e 238 310
e 238 435
e 238 529
e 239 893
e 239 1072
e 240 621
e 240 692
e 240 797
e 241 371
e 241 580
e 242 337
e 242 442
e 242 509
e 243 333
e 243 613
e 243 704
e 243 785
e 243 840
e 243 879
e 243 896
e 243 918
e 243 940
e 243 946
e 244 371
e 244 567
e 245 329
e 245 416
e 245 562
e 245 724
e 245 795
e 245 849
e 245 882
e 245 894
e 245 947
e 245 963
e 245 998
e 246 395
e 246 405
e 246 414
e 246 419
e 246 501
e 246 813
e 246 875
e 247 774
e 248 586
e 248 714
e 249 644
e 249 774
e 250 664
e 251 805
e 251 825
e 252 960
e 253 618
e 253 886
e 254 572
e 254 644
e 254 933
e 255 392
e 255 589
e 255 1017
e 256 362
e 256 851
e 257 350
e 257 507
e 257 516
e 257 530
e 257 687
e 257 709
e 257 730
e 257 752
e 257 890
e 257 891
e 257 1027
e 258 281
e 258 366
e 258 441
e 258 603
e 258 684
e 258 693
e 258 785
e 258 872
e 258 990
e 258 1043
e 259 442
e 259 630
e 259 902
e 260 394
e 260 478
e 260 507
e 260 533
e 260 739
e 260 826
e 260 845
e 260 1058
e 261 586
e 261 651
e 261 685
e 262 320
e 262 677
e 262 1039
e 263 385
e 263 559
e 264 425
e 264 428
e 264 434
e 264 473
e 264 576
e 264 740
e 264 860
e 264 949
e 264 1028
e 265 566
e 265 774
e 265 805
e 266 310
e 266 623
e 266 823
e 267 757
e 268 310
e 268 692
e 268 1003
e 269 648
e 269 719
e 269 1047
e 270 823
e 270 895
e 271 307
e 271 325
e 271 579
e 271 637
e 271 674
e 271 749
e 271 815
e 271 873
e 271 907
e 272 567
e 272 851
e 273 284
e 273 989
e 273 1039
e 274 850
e 274 893
e 275 284
e 276 529
e 277 966
e 277 1054
e 278 392
e 278 435
e 278 928
e 279 413
e 280 492
e 280 642
e 280 825
e 281 675
e 281 902
e 282 504
e 283 526
e 283 618
e 283 1003
e 284 479
e 284 506
e 284 604
e 284 613
e 284 669
e 284 756
e 284 819
e 284 948
e 284 985
e 284 1061
e 285 657
e 285 683
e 286 492
e 286 513
e 287 423
e 287 567
e 288 512
e 288 774
e 288 791
e 289 664
e 289 787
e 289 897
e 290 316
e 290 610
e 290 1039
e 291 768
e 291 924
e 292 344
e 292 702
e 292 922
e 293 320
e 293 420
e 293 442
e 294 648
e 294 1034
e 295 409
e 295 481
e 295 505
e 295 815
e 295 833
e 295 864
e 295 968
e 295 971
e 295 1008
e 295 1075
e 296 616
e 296 823
e 296 979
e 297 344
e 297 522
e 298 559
e 298 858
e 299 440
e 299 858
e 299 886
e 300 787
e 300 895
e 301 320
e 302 504
e 302 827
e 303 399
e 303 696
e 303 1036
e 304 462
e 304 630
e 304 692
e 305 685
e 305 787
e 305 942
e 306 423
e 306 553
e 307 471
e 307 548
e 308 358
e 309 471
e 309 573
e 309 580
e 310 363
e 310 384
e 310 596
e 310 758
e 310 873
e 310 925
e 310 956
e 310 1038
e 311 393
e 311 420
e 312 714
e 312 774
e 312 858
e 313 358
e 313 621
e 313 830
e 314 370
e 314 494
e 314 561
e 314 563
e 314 867
e 314 941
e 314 947
e 314 984
e 314 1001
e 314 1075
e 315 623
e 315 916
e 316 458
e 316 499
e 316 588
e 316 690
e 316 759
e 316 789
e 316 1022
e 316 1040
e 317 772
e 317 983
e 318 440
e 318 903
e 319 529
e 319 760
e 319 1066
e 320 455
e 320 477
e 320 485
e 320 841
e 320 911
e 321 630
e 321 926
e 322 652
e 322 762
e 322 767
e 323 420
e 323 433
e 323 610
e 324 621
e 324 926
e 325 999
e 326 642
e 326 673
e 326 903
e 328 371
e 328 548
e 328 606
e 329 571
e 329 893
e 330 459
e 330 555
e 330 647
e 330 706
e 330 781
e 330 842
e 330 947
e 331 383
e 331 503
e 331 510
e 331 515
e 331 570
e 331 634
e 331 938
e 331 968
e 332 567
e 332 679
e 333 714
e 333 719
e 334 506
e 334 527
e 334 547
e 334 588
e 334 629
e 334 794
e 334 809
e 334 996
e 335 805
e 335 895
e 335 1030
e 336 476
e 336 551
e 336 674
e 336 704
e 336 725
e 336 761
e 336 1002
e 336 1035
e 336 1048
e 336 1049
e 337 348
e 337 431
e 337 445
e 337 459
e 337 563
e 337 609
e 338 701
e 338 767
e 340 376
e 340 393
e 340 580
e 341 584
e 341 619
e 341 714
e 342 526
e 342 659
e 342 1066
e 343 610
e 343 677
e 344 400
e 344 408
e 344 596
e 344 620
e 344 641
e 344 878
e 344 959
e 344 1045
e 345 471
e 345 567
e 345 1074
e 346 450
e 346 522
e 346 924
e 347 805
e 347 966
e 348 673
e 348 1015
e 349 398
e 349 897
e 350 471
e 350 933
e 351 586
e 352 359
e 353 419
e 353 436
e 353 437
e 353 455
e 353 587
e 353 638
e 353 678
e 353 682
e 353 741
e 353 965
e 353 1011
e 354 361
e 354 526
e 355 462
e 355 572
e 355 586
e 356 696
e 356 916
e 356 1030
e 357 571
e 357 703
e 357 1047
e 358 444
e 358 544
e 358 655
e 358 661
e 358 666
e 358 700
e 358 745
e 358 816
e 359 406
e 359 447
e 359 478
e 359 597
e 359 781
e 361 369
e 361 389
e 361 617
e 361 646
e 361 821
e 361 898
e 361 932
e 361 959
e 361 1032
e 362 425
e 362 430
e 362 456
e 362 643
e 362 781
e 362 798
e 362 1052
e 363 945
e 364 398
e 364 992
e 365 797
e 365 934
e 365 992
e 367 385
e 367 850
e 367 933
e 368 595
e 368 1077
e 369 1039
e 370 392
e 370 701
e 371 388
e 371 530
e 371 707
e 371 763
e 371 907
e 371 980
e 371 1004
e 372 703
e 372 851
e 373 630
e 373 979
e 373 1068
e 374 504
e 374 673
e 375 747
e 375 1036
e 376 437
e 376 452
e 376 477
e 376 569
e 376 765
e 376 853
e 377 657
e 378 664
e 378 903
e 378 1034
e 379 1039
e 380 399
e 380 1039
e 380 1065
e 381 420
e 381 960
e 381 1047
e 382 791
e 382 895
e 382 966
e 384 924
e 385 473
e 385 480
e 385 914
e 385 1006
e 386 619
e 387 435
e 387 606
e 388 734
e 388 928
e 389 662
e 389 1065
e 390 595
e 390 747
e 390 1074
e 391 989
e 391 1036
e 391 1077
e 392 812
e 392 817
e 392 848
e 392 876
e 392 921
e 392 1070
e 393 407
e 393 608
e 393 624
e 393 950
e 394 413
e 394 734
e 395 619
e 395 1072
e 396 618
e 396 823
e 397 566
e 397 1030
e 398 451
e 398 517
e 398 611
e 398 643
e 398 1005
e 398 1018
e 399 451
e 399 524
e 399 549
e 399 602
e 399 604
e 399 628
e 399 909
e 399 1064
e 400 825
e 401 903
e 402 823
e 403 423
e 404 509
e 404 589
e 404 827
e 405 768
e 406 774
e 406 1036
e 407 642
e 407 768
e 408 450
e 409 1068
e 410 435
e 410 522
e 410 945
e 411 621
e 411 696
e 411 787
e 412 904
e 413 457
e 413 511
e 413 527
e 413 531
e 413 549
e 413 600
e 413 743
e 413 744
e 413 766
e 414 439
e 414 683
e 415 926
e 415 1036
e 417 703
e 417 893
e 417 928
e 418 492
e 418 553
e 419 928
e 420 448
e 420 592
e 420 706
e 420 813
e 420 958
e 421 559
e 421 685
e 421 850
e 422 557
e 422 734
e 423 426
e 423 528
e 423 670
e 423 710
e 423 726
e 423 751
e 423 798
e 423 954
e 423 1033
e 424 651
e 424 772
e 424 934
e 425 566
e 426 513
e 427 719
e 427 757
e 428 884
e 428 1053
e 429 850
e 429 1003
e 430 850
e 430 1054
e 431 571
e 431 701
e 432 922
e 432 1020
e 433 546
e 433 661
e 433 676
e 433 704
e 433 751
e 433 849
e 433 864
e 433 900
e 433 964
e 434 685
e 434 933
e 435 476
e 435 579
e 435 636
e 435 815
e 435 832
e 435 862
e 436 1065
e 437 465
e 438 851
e 438 916
e 439 452
e 439 521
e 439 532
e 439 585
e 439 605
e 439 718
e 439 755
e 439 770
e 439 950
e 440 448
e 440 468
e 440 555
e 440 620
e 440 1027
e 441 989
e 442 496
e 442 562
e 442 655
e 442 671
e 442 761
e 442 967
e 442 1033
e 442 1042
e 443 584
e 443 747
e 445 504
e 445 1077
e 446 1065
e 447 857
e 447 945
e 448 1034
e 449 902
e 449 903
e 450 490
e 450 528
e 450 539
e 450 543
e 450 736
e 450 758
e 450 1019
e 450 1059
e 451 942
e 452 610
e 453 525
e 453 934
e 454 559
e 454 652
e 456 525
e 456 983
e 457 696
e 457 747
e 458 566
e 458 787
e 460 657
e 460 850
e 461 805
e 462 518
e 462 575
e 462 725
e 462 735
e 462 773
e 462 883
e 462 927
e 463 1020
e 464 679
e 464 714
e 464 902
e 465 493
e 465 496
e 465 499
e 465 532
e 465 541
e 465 546
e 465 663
e 465 880
e 465 975
e 466 767
e 466 1047
e 467 529
e 467 616
e 467 830
e 469 567
e 469 960
e 470 651
e 470 834
e 470 992
e 471 486
e 471 489
e 471 738
e 471 908
e 472 719
e 474 618
e 474 760
e 474 884
e 475 702
e 475 904
e 475 924
e 476 606
e 477 619
e 478 595
e 479 618
e 479 675
e 480 897
e 480 966
e 481 692
e 482 529
e 482 857
e 483 701
e 483 928
e 484 584
e 484 619
e 485 566
e 485 616
e 486 696
e 487 662
e 487 747
e 487 1065
e 488 526
e 488 810
e 488 1066
e 489 606
e 490 701
e 490 1072
e 491 559
e 491 1047
e 492 605
e 492 633
e 492 749
e 492 765
e 492 818
e 492 970
e 492 1011
e 493 619
e 493 857
e 494 630
e 494 642
e 495 512
e 495 787
e 496 648
e 497 791
e 497 1030
e 497 1053
e 498 897
e 498 934
e 500 942
e 500 1066
e 501 648
e 502 675
e 503 573
e 503 1053
e 504 578
e 504 724
e 504 871
e 505 618
e 506 662
e 508 606
e 508 625
e 508 630
e 509 578
e 509 653
e 509 699
e 509 801
e 509 812
e 509 849
e 509 993
e 509 1013
e 510 572
e 510 702
e 511 623
e 511 895
e 512 541
e 512 731
e 512 737
e 512 826
e 512 952
e 512 1022
e 512 1028
e 512 1044
e 513 624
e 513 694
e 513 754
e 513 813
e 513 820
e 513 1058
e 514 702
e 514 1047
e 515 548
e 515 895
e 516 559
e 516 1020
e 517 526
e 517 830
e 518 1047
e 519 933
e 520 595
e 520 696
e 521 715
e 522 536
e 522 577
e 522 579
e 522 645
e 522 728
e 522 913
e 522 1023
e 523 1036
e 523 1074
e 524 595
e 525 699
e 525 937
e 525 977
e 525 1000
e 525 1014
e 526 611
e 526 698
e 526 840
e 527 1077
e 529 598
e 529 611
e 529 645
e 529 796
e 529 1031
e 529 1050
e 530 559
e 531 673
e 533 805
e 533 1054
e 534 685
e 534 897
e 534 1030
e 535 572
e 536 703
e 537 571
e 537 657
e 538 571
e 538 827
e 538 1017
e 539 572
e 539 767
e 540 648
e 540 757
e 540 960
e 541 616
e 542 589
e 543 683
e 543 893
e 544 810
e 544 916
e 545 662
e 545 989
e 547 992
e 548 620
e 548 836
e 548 866
e 548 874
e 548 927
e 548 1076
e 549 1074
e 550 774
e 550 1054
e 551 623
e 552 664
e 552 1030
e 553 641
e 553 661
e 553 759
e 553 807
e 553 846
e 553 865
e 553 967
e 553 1055
e 554 945
e 556 662
e 556 922
e 557 593
e 557 710
e 557 792
e 557 816
e 557 842
e 557 1044
e 557 1059
e 558 616
e 558 659
e 559 576
e 559 697
e 559 738
e 559 915
e 559 978
e 560 573
e 560 895
e 561 616
e 561 1003
e 562 1017
e 564 810
e 564 834
e 565 586
e 565 922
e 566 593
e 566 717
e 566 739
e 566 783
e 566 929
e 567 582
e 567 678
e 567 711
e 567 755
e 567 793
e 568 902
e 568 960
e 569 992
e 571 688
e 571 713
e 571 848
e 571 855
e 571 1013
e 571 1073
e 572 592
e 572 612
e 572 713
e 572 915
e 572 917
e 572 1025
e 572 1080
e 573 575
e 573 712
e 573 804
e 573 808
e 573 907
e 574 586
e 574 644
e 574 715
e 576 664
e 577 659
e 578 992
e 580 636
e 580 836
e 580 970
e 580 971
e 580 1023
e 580 1035
e 580 1046
e 581 591
e 582 719
e 583 591
e 583 858
e 584 614
e 584 678
e 584 741
e 584 750
e 584 770
e 584 888
e 584 932
e 584 1064
e 585 1065
e 586 753
e 586 1032
e 589 712
e 589 780
e 589 801
e 589 802
e 589 963
e 589 1000
e 590 673
e 590 886
e 590 1068
e 591 730
e 591 783
e 591 828
e 591 952
e 591 1024
e 591 1079
e 592 719
e 594 827
e 594 893
e 594 979
e 595 629
e 595 668
e 595 672
e 595 727
e 595 1026
e 595 1079
e 596 703
e 597 659
e 598 810
e 599 619
e 599 715
e 599 1065
e 600 926
e 600 1053
e 601 787
e 601 791
e 602 897
e 602 983
e 603 618
e 603 903
e 605 1072
e 606 765
e 606 808
e 606 875
e 606 956
e 606 1008
e 607 1015
e 608 619
e 608 683
e 609 767
e 609 893
e 610 671
e 610 737
e 610 910
e 610 965
e 610 981
e 612 648
e 612 679
e 613 903
e 614 1039
e 615 621
e 615 652
e 616 650
e 616 769
e 616 910
e 617 702
e 618 676
e 618 761
e 618 972
e 618 1041
e 619 793
e 619 831
e 619 981
e 621 665
e 621 726
e 621 855
e 621 943
e 621 991
e 622 747
e 622 1039
e 623 672
e 623 844
e 623 991
e 623 1071
e 624 648
e 625 645
e 625 674
e 625 876
e 625 956
e 625 971
e 625 1023
e 625 1038
e 626 772
e 626 989
e 627 702
e 627 715
e 628 1074
e 630 636
e 630 637
e 630 676
e 630 946
e 630 988
e 631 685
e 631 797
e 632 702
e 633 768
e 633 1068
e 634 652
e 635 934
e 638 714
e 639 992
e 640 830
e 640 834
e 640 897
e 641 942
e 642 649
e 642 694
e 642 833
e 642 859
e 642 939
e 642 974
e 642 1048
e 643 772
e 644 697
e 644 705
e 644 824
e 644 828
e 644 899
e 644 1058
e 647 685
e 647 903
e 648 818
e 649 675
e 649 1077
e 650 791
e 650 1057
e 651 732
e 651 778
e 651 872
e 651 977
e 651 985
e 651 991
e 652 688
e 652 689
e 652 705
e 652 746
e 652 773
e 652 885
e 653 827
e 654 772
e 654 857
e 655 825
e 656 924
e 656 1057
e 657 736
e 657 740
e 657 775
e 657 795
e 657 867
e 657 921
e 657 997
e 658 999
e 659 708
e 659 832
e 659 853
e 659 935
e 659 1005
e 659 1038
e 660 933
e 660 1047
e 662 693
e 662 750
e 662 880
e 662 905
e 662 1064
e 663 1039
e 664 778
e 664 870
e 664 955
e 664 961
e 665 810
e 665 851
e 667 772
e 667 834
e 668 692
e 668 1053
e 669 747
e 669 1074
e 670 762
e 670 810
e 673 722
e 673 944
e 673 963
e 673 996
e 673 1026
e 673 1040
e 675 716
e 675 722
e 675 879
e 675 955
e 675 976
e 675 1027
e 677 695
e 677 717
e 677 731
e 677 865
e 677 877
e 677 880
e 677 953
e 677 1051
e 679 681
e 679 694
e 679 771
e 679 776
e 679 918
e 679 930
e 679 958
e 679 1041
e 680 760
e 680 834
e 680 904
e 681 1047
e 682 1065
e 683 868
e 683 980
e 683 1011
e 684 797
e 684 934
e 685 691
e 685 889
e 685 976
e 685 1056
e 686 719
e 687 886
e 688 916
e 690 768
e 690 805
e 691 702
e 692 743
e 692 779
e 692 913
e 692 1029
e 696 707
e 696 711
e 696 819
e 696 822
e 697 757
e 698 904
e 698 934
e 699 1015
e 700 762
e 701 723
e 701 868
e 701 969
e 701 994
e 702 778
e 702 824
e 702 914
e 703 775
e 703 798
e 703 816
e 703 868
e 703 1016
e 703 1080
e 705 904
e 708 810
e 711 999
e 714 718
e 714 730
e 714 824
e 714 1067
e 715 741
e 715 891
e 715 940
e 715 1041
e 716 858
e 716 1057
e 717 966
e 718 1065
e 719 754
e 719 939
e 719 972
e 720 999
e 720 1072
e 721 945
e 723 979
e 725 926
e 727 734
e 727 774
e 728 823
e 728 926
e 729 830
e 729 934
e 731 1030
e 732 762
e 732 926
e 733 858
e 733 903
e 734 796
e 734 908
e 734 1024
e 735 895
e 736 928
e 739 791
e 742 762
e 744 774
e 745 768
e 746 858
e 747 782
e 747 982
e 747 990
e 748 1066
e 750 904
e 751 825
e 752 903
e 752 1057
e 753 757
e 756 834
e 757 856
e 757 958
e 757 1016
e 760 806
e 760 869
e 760 896
e 760 898
e 760 1012
e 760 1018
e 762 822
e 762 852
e 762 923
e 762 1071
e 762 1073
e 763 858
e 763 933
e 764 1036
e 766 989
e 767 795
e 767 812
e 767 837
e 767 847
e 767 1016
e 767 1021
e 768 838
e 768 861
e 768 877
e 768 878
e 768 900
e 768 1033
e 769 884
e 772 792
e 772 801
e 772 871
e 772 881
e 774 820
e 774 891
e 774 962
e 775 1072
e 777 884
e 777 902
e 779 823
e 782 942
e 782 983
e 784 851
e 785 886
e 786 989
e 787 923
e 787 951
e 787 1051
e 788 1034
e 789 1030
e 789 1054
e 790 893
e 791 800
e 791 877
e 791 1055
e 792 1066
e 793 1065
e 797 881
e 797 914
e 797 1007
e 797 1061
e 797 1071
e 799 1057
e 802 992
e 802 1017
e 803 830
e 803 945
e 805 865
e 805 951
e 805 952
e 806 830
e 806 1066
e 807 897
e 807 924
e 808 999
e 809 1077
e 810 1012
e 811 1020
e 814 830
e 814 983
e 817 1015
e 821 834
e 822 966
e 823 896
e 823 906
e 823 1001
e 825 854
e 825 953
e 825 957
e 825 987
e 827 847
e 827 862
e 827 867
e 827 892
e 827 994
e 827 1009
e 829 886
e 829 1077
e 830 935
e 830 954
e 833 979
e 834 872
e 835 960
e 836 999
e 837 916
e 839 966
e 839 1053
e 840 884
e 843 1054
e 844 884
e 850 906
e 850 929
e 850 1044
e 850 1060
e 851 900
e 851 957
e 851 967
e 851 1059
e 852 1030
e 854 924
e 854 942
e 857 875
e 857 965
e 857 970
e 858 978
e 859 960
e 860 893
e 861 942
e 862 1072
e 863 916
e 863 1020
e 864 902
e 866 1057
e 869 922
e 870 933
e 874 1015
e 876 1072
e 878 897
e 882 1015
e 882 1077
e 883 1020
e 884 913
e 884 925
e 884 941
e 884 1060
e 885 922
e 886 948
e 886 974
e 886 1006
e 887 922
e 887 924
e 888 922
e 888 1039
e 889 966
e 890 999
e 892 928
e 893 984
e 893 1070
e 894 1034
e 895 949
e 895 1029
e 895 1060
e 897 982
e 897 987
e 898 934
e 899 922
e 901 960
e 902 948
e 902 1049
e 903 1010
e 904 919
e 904 931
e 904 1069
e 906 1053
e 908 1072
e 909 1066
e 910 1054
e 911 1054
e 912 916
e 912 966
e 912 1074
e 916 954
e 916 1007
e 920 922
e 920 934
e 921 979
e 923 1074
e 924 1032
e 925 926
e 926 968
e 926 995
e 926 1007
e 927 1053
e 928 950
e 930 1068
e 933 1062
e 934 985
e 937 1066
e 938 1020
e 940 960
e 942 961
e 943 966
e 945 1018
e 949 1003
e 951 1053
e 960 1025
e 961 966
e 964 1017
e 966 1022
e 973 1034
e 973 1057
e 975 1054
e 976 1034
e 978 999
e 979 998
e 979 1002
e 982 1066
e 983 1012
e 983 1050
e 986 1072
e 989 1026
e 989 1040
e 995 1003
e 996 1036
e 999 1062
e 1003 1037
e 1006 1034
e 1009 1015
e 1009 1017
e 1010 1068
e 1010 1077
e 1017 1021
e 1019 1047
e 1020 1069
e 1020 1073
e 1024 1036
e 1029 1036
e 1030 1063
e 1037 1053
e 1043 1074
e 1051 1054
e 1053 1078
